WARNING: for repeatability, setting FPU to use double precision
============================[ Problem Statistics ]=============================
|                                                                             |
|  Number of variables:           100                                         |
|  Number of clauses:             449                                         |
|  Parse time:                   0.00 s                                       |
|  Eliminated clauses:           0.00 Mb                                      |
|  Simplification time:          0.00 s                                       |
|                                                                             |
============================[ Search Statistics ]==============================
| Conflicts |          ORIGINAL         |          LEARNT          | Progress |
|           |    Vars  Clauses Literals |    Limit  Clauses Lit/Cl |          |
===============================================================================
|       100 |      95      438     1345 |      160      100      7 |  0.010 % |
|       250 |      94      425     1299 |      176       69      6 |  1.011 % |
===============================================================================
restarts              : 3
conflicts             : 250            (69425 /sec)
decisions             : 326            (0.00 % random) (90530 /sec)
propagations          : 5541           (1538739 /sec)
conflict literals     : 1506           (25.81 % deleted)
Memory used           : 13.00 MB
CPU time              : 0.003601 s

SATISFIABLE
